\ Model Model: H-KMedian-N_copy
\ LP format - for model browsing. Use MPS format to capture full model detail.
Minimize
 
Subject To
 R2: 72.98903609745344 alpha[1000,0,1,0,1004,1] - 2.70794 point[1,0,0]
   - 24.10941 point[1,0,1] >= 369.3422694787322
Bounds
Binaries
 alpha[1000,0,1,0,1004,1]
End
